sat
(:max-memory          18.18
 :memory              17.63
 :num-allocs          142590
 :rlimit-count        419763
 :sls-arith-moves     5636
 :sls-ddfw-flips      290.00
 :sls-ddfw-shifts     32.00
 :solve-eqs-elim-vars 13
 :solve-eqs-steps     302
 :time                0.64
 :total-time          0.57)
